Optimal - objective value 9.07462700
      0 r_0                         0                       1
      1 r_1                         1                       1
      2 r_2                         0                       1
      3 r_3                         0                       1
      4 r_4                         0                       1
      5 r_5                         0                       1
      6 r_6                         0                0.985075
      7 r_7                         0                0.985075
      8 r_8                         0                0.955224
      9 r_9                         0                0.955224
     10 r_10                        1                0.955224
     11 r_11                        1                0.955224
     12 r_12                        0                0.850746
     13 r_13                        0                 0.80597
     14 r_14                        0                 0.80597
     15 r_15                        0                0.791045
     16 b_0                         1                       1
     17 b_1                         0                       1
     18 b_2                         0                       1
     19 b_3                         0                       1
     20 b_4                         0                       1
     21 b_5                         0                       1
     22 b_6                         0                0.985075
     23 b_7                         0                0.985075
     24 b_8                         1                0.955224
     25 b_9                         1                0.955224
     26 b_10                        0                0.955224
     27 b_11                        0                0.955224
     28 b_12                        1                0.850746
     29 b_13                        1                 0.80597
     30 b_14                        1                 0.80597
     31 b_15                        1                0.791045
